% Generated by MiniZinc 2.9.3
% Solver library: /home/void/Workspace-Research/Code/fzn-minicpp/minizinc
% Command line invocation: minizinc --solver org.minicpp.ml --compile --no-output-ozn rcpsp-sat.mzn dzn/J60_22_2.dzn -D makespan=83 -o fzn-sat/J60_22_2.fzn 

predicate int_lin_le_imp(array [int] of int: as,array [int] of var int: bs,int: c,var bool: r);
predicate minicpp_cumulative(array [int] of var int: s,array [int] of var int: d,array [int] of var int: r,var int: b);
array [1..2] of int: X_INTRODUCED_78_ = [1,-1];
array [1..39] of int: X_INTRODUCED_153_ = [4,10,3,10,5,4,2,7,1,6,8,10,7,3,9,9,2,1,2,4,8,10,10,2,4,3,9,6,6,6,2,9,10,7,9,7,1,10,3];
array [1..39] of int: X_INTRODUCED_154_ = [5,5,7,3,6,5,10,1,10,5,6,5,3,1,3,3,8,9,2,4,9,7,6,4,1,7,9,9,6,6,6,9,9,3,10,5,5,7,7];
array [1..22] of int: X_INTRODUCED_156_ = [2,8,9,8,6,8,2,10,4,5,1,2,9,9,7,1,8,2,9,4,10,1];
array [1..22] of int: X_INTRODUCED_157_ = [7,10,5,6,9,10,1,10,9,3,8,9,7,1,7,6,6,9,8,5,9,7];
array [1..32] of int: X_INTRODUCED_159_ = [9,1,9,6,5,9,3,9,4,9,10,9,10,6,5,7,4,5,10,8,7,4,5,4,7,7,3,5,3,4,10,9];
array [1..32] of int: X_INTRODUCED_160_ = [7,3,9,10,10,6,9,8,6,7,8,9,2,10,9,5,6,1,3,1,7,6,7,9,3,10,5,5,1,7,7,10];
array [1..28] of int: X_INTRODUCED_162_ = [6,1,9,7,9,2,6,7,6,7,10,7,3,10,7,9,4,2,2,7,6,7,7,9,7,4,7,9];
array [1..28] of int: X_INTRODUCED_163_ = [5,10,5,7,3,6,1,5,6,9,5,6,1,3,7,5,2,7,5,3,1,9,9,6,8,5,1,3];
var 0..356: X_INTRODUCED_16_;
var 0..356: X_INTRODUCED_17_;
var 0..356: X_INTRODUCED_18_;
var 0..356: X_INTRODUCED_19_;
var 0..356: X_INTRODUCED_20_;
var 0..356: X_INTRODUCED_21_;
var 0..356: X_INTRODUCED_22_;
var 0..356: X_INTRODUCED_23_;
var 0..356: X_INTRODUCED_24_;
var 0..356: X_INTRODUCED_25_;
var 0..356: X_INTRODUCED_26_;
var 0..356: X_INTRODUCED_27_;
var 0..356: X_INTRODUCED_28_;
var 0..356: X_INTRODUCED_29_;
var 0..356: X_INTRODUCED_30_;
var 0..356: X_INTRODUCED_31_;
var 0..356: X_INTRODUCED_32_;
var 0..356: X_INTRODUCED_33_;
var 0..356: X_INTRODUCED_34_;
var 0..356: X_INTRODUCED_35_;
var 0..356: X_INTRODUCED_36_;
var 0..356: X_INTRODUCED_37_;
var 0..356: X_INTRODUCED_38_;
var 0..356: X_INTRODUCED_39_;
var 0..356: X_INTRODUCED_40_;
var 0..356: X_INTRODUCED_41_;
var 0..356: X_INTRODUCED_42_;
var 0..356: X_INTRODUCED_43_;
var 0..356: X_INTRODUCED_44_;
var 0..356: X_INTRODUCED_45_;
var 0..356: X_INTRODUCED_46_;
var 0..356: X_INTRODUCED_47_;
var 0..356: X_INTRODUCED_48_;
var 0..356: X_INTRODUCED_49_;
var 0..356: X_INTRODUCED_50_;
var 0..356: X_INTRODUCED_51_;
var 0..356: X_INTRODUCED_52_;
var 0..356: X_INTRODUCED_53_;
var 0..356: X_INTRODUCED_54_;
var 0..356: X_INTRODUCED_55_;
var 0..356: X_INTRODUCED_56_;
var 0..356: X_INTRODUCED_57_;
var 0..356: X_INTRODUCED_58_;
var 0..356: X_INTRODUCED_59_;
var 0..356: X_INTRODUCED_60_;
var 0..356: X_INTRODUCED_61_;
var 0..356: X_INTRODUCED_62_;
var 0..356: X_INTRODUCED_63_;
var 0..356: X_INTRODUCED_64_;
var 0..356: X_INTRODUCED_65_;
var 0..356: X_INTRODUCED_66_;
var 0..356: X_INTRODUCED_67_;
var 0..356: X_INTRODUCED_68_;
var 0..356: X_INTRODUCED_69_;
var 0..356: X_INTRODUCED_70_;
var 0..356: X_INTRODUCED_71_;
var 0..356: X_INTRODUCED_72_;
var 0..80: X_INTRODUCED_73_;
var 0..76: X_INTRODUCED_74_;
var 0..73: X_INTRODUCED_75_;
var bool: X_INTRODUCED_135_ ::var_is_introduced :: is_defined_var;
var bool: X_INTRODUCED_136_ ::var_is_introduced :: is_defined_var;
var bool: X_INTRODUCED_137_ ::var_is_introduced :: is_defined_var;
var bool: X_INTRODUCED_138_ ::var_is_introduced :: is_defined_var;
var bool: X_INTRODUCED_139_ ::var_is_introduced :: is_defined_var;
var bool: X_INTRODUCED_140_ ::var_is_introduced :: is_defined_var;
var bool: X_INTRODUCED_141_ ::var_is_introduced :: is_defined_var;
var bool: X_INTRODUCED_142_ ::var_is_introduced :: is_defined_var;
var bool: X_INTRODUCED_143_ ::var_is_introduced :: is_defined_var;
var bool: X_INTRODUCED_144_ ::var_is_introduced :: is_defined_var;
var bool: X_INTRODUCED_145_ ::var_is_introduced :: is_defined_var;
var bool: X_INTRODUCED_146_ ::var_is_introduced :: is_defined_var;
var bool: X_INTRODUCED_147_ ::var_is_introduced :: is_defined_var;
var bool: X_INTRODUCED_148_ ::var_is_introduced :: is_defined_var;
var bool: X_INTRODUCED_149_ ::var_is_introduced :: is_defined_var;
var bool: X_INTRODUCED_150_ ::var_is_introduced :: is_defined_var;
var bool: X_INTRODUCED_151_ ::var_is_introduced :: is_defined_var;
var bool: X_INTRODUCED_152_ ::var_is_introduced :: is_defined_var;
array [1..60] of var int: s:: output_array([1..60]) = [X_INTRODUCED_16_,X_INTRODUCED_17_,X_INTRODUCED_18_,X_INTRODUCED_19_,X_INTRODUCED_20_,X_INTRODUCED_21_,X_INTRODUCED_22_,X_INTRODUCED_23_,X_INTRODUCED_24_,X_INTRODUCED_25_,X_INTRODUCED_26_,X_INTRODUCED_27_,X_INTRODUCED_28_,X_INTRODUCED_29_,X_INTRODUCED_30_,X_INTRODUCED_31_,X_INTRODUCED_32_,X_INTRODUCED_33_,X_INTRODUCED_34_,X_INTRODUCED_35_,X_INTRODUCED_36_,X_INTRODUCED_37_,X_INTRODUCED_38_,X_INTRODUCED_39_,X_INTRODUCED_40_,X_INTRODUCED_41_,X_INTRODUCED_42_,X_INTRODUCED_43_,X_INTRODUCED_44_,X_INTRODUCED_45_,X_INTRODUCED_46_,X_INTRODUCED_47_,X_INTRODUCED_48_,X_INTRODUCED_49_,X_INTRODUCED_50_,X_INTRODUCED_51_,X_INTRODUCED_52_,X_INTRODUCED_53_,X_INTRODUCED_54_,X_INTRODUCED_55_,X_INTRODUCED_56_,X_INTRODUCED_57_,X_INTRODUCED_58_,X_INTRODUCED_59_,X_INTRODUCED_60_,X_INTRODUCED_61_,X_INTRODUCED_62_,X_INTRODUCED_63_,X_INTRODUCED_64_,X_INTRODUCED_65_,X_INTRODUCED_66_,X_INTRODUCED_67_,X_INTRODUCED_68_,X_INTRODUCED_69_,X_INTRODUCED_70_,X_INTRODUCED_71_,X_INTRODUCED_72_,X_INTRODUCED_73_,X_INTRODUCED_74_,X_INTRODUCED_75_];
array [1..39] of var int: X_INTRODUCED_155_ ::var_is_introduced  = [X_INTRODUCED_17_,X_INTRODUCED_19_,X_INTRODUCED_20_,X_INTRODUCED_21_,X_INTRODUCED_22_,X_INTRODUCED_24_,X_INTRODUCED_25_,X_INTRODUCED_26_,X_INTRODUCED_27_,X_INTRODUCED_28_,X_INTRODUCED_29_,X_INTRODUCED_31_,X_INTRODUCED_34_,X_INTRODUCED_35_,X_INTRODUCED_36_,X_INTRODUCED_37_,X_INTRODUCED_39_,X_INTRODUCED_40_,X_INTRODUCED_42_,X_INTRODUCED_44_,X_INTRODUCED_45_,X_INTRODUCED_46_,X_INTRODUCED_48_,X_INTRODUCED_52_,X_INTRODUCED_53_,X_INTRODUCED_54_,X_INTRODUCED_56_,X_INTRODUCED_57_,X_INTRODUCED_58_,X_INTRODUCED_59_,X_INTRODUCED_60_,X_INTRODUCED_62_,X_INTRODUCED_64_,X_INTRODUCED_66_,X_INTRODUCED_67_,X_INTRODUCED_68_,X_INTRODUCED_69_,X_INTRODUCED_72_,X_INTRODUCED_74_];
array [1..22] of var int: X_INTRODUCED_158_ ::var_is_introduced  = [X_INTRODUCED_16_,X_INTRODUCED_18_,X_INTRODUCED_19_,X_INTRODUCED_22_,X_INTRODUCED_23_,X_INTRODUCED_25_,X_INTRODUCED_26_,X_INTRODUCED_27_,X_INTRODUCED_30_,X_INTRODUCED_37_,X_INTRODUCED_39_,X_INTRODUCED_45_,X_INTRODUCED_51_,X_INTRODUCED_53_,X_INTRODUCED_54_,X_INTRODUCED_59_,X_INTRODUCED_60_,X_INTRODUCED_62_,X_INTRODUCED_63_,X_INTRODUCED_68_,X_INTRODUCED_70_,X_INTRODUCED_72_];
array [1..32] of var int: X_INTRODUCED_161_ ::var_is_introduced  = [X_INTRODUCED_20_,X_INTRODUCED_21_,X_INTRODUCED_23_,X_INTRODUCED_25_,X_INTRODUCED_27_,X_INTRODUCED_29_,X_INTRODUCED_30_,X_INTRODUCED_32_,X_INTRODUCED_33_,X_INTRODUCED_38_,X_INTRODUCED_39_,X_INTRODUCED_40_,X_INTRODUCED_42_,X_INTRODUCED_43_,X_INTRODUCED_45_,X_INTRODUCED_47_,X_INTRODUCED_48_,X_INTRODUCED_49_,X_INTRODUCED_50_,X_INTRODUCED_53_,X_INTRODUCED_54_,X_INTRODUCED_59_,X_INTRODUCED_61_,X_INTRODUCED_62_,X_INTRODUCED_66_,X_INTRODUCED_67_,X_INTRODUCED_68_,X_INTRODUCED_69_,X_INTRODUCED_71_,X_INTRODUCED_72_,X_INTRODUCED_74_,X_INTRODUCED_75_];
array [1..28] of var int: X_INTRODUCED_164_ ::var_is_introduced  = [X_INTRODUCED_17_,X_INTRODUCED_18_,X_INTRODUCED_19_,X_INTRODUCED_20_,X_INTRODUCED_21_,X_INTRODUCED_22_,X_INTRODUCED_26_,X_INTRODUCED_28_,X_INTRODUCED_29_,X_INTRODUCED_30_,X_INTRODUCED_31_,X_INTRODUCED_33_,X_INTRODUCED_35_,X_INTRODUCED_36_,X_INTRODUCED_38_,X_INTRODUCED_41_,X_INTRODUCED_42_,X_INTRODUCED_46_,X_INTRODUCED_47_,X_INTRODUCED_50_,X_INTRODUCED_55_,X_INTRODUCED_56_,X_INTRODUCED_57_,X_INTRODUCED_58_,X_INTRODUCED_63_,X_INTRODUCED_65_,X_INTRODUCED_71_,X_INTRODUCED_73_];
constraint int_lin_le(X_INTRODUCED_78_,[X_INTRODUCED_16_,X_INTRODUCED_21_],-7);
constraint int_lin_le(X_INTRODUCED_78_,[X_INTRODUCED_16_,X_INTRODUCED_30_],-7);
constraint int_lin_le(X_INTRODUCED_78_,[X_INTRODUCED_16_,X_INTRODUCED_46_],-7);
constraint int_lin_le(X_INTRODUCED_78_,[X_INTRODUCED_17_,X_INTRODUCED_23_],-5);
constraint int_lin_le(X_INTRODUCED_78_,[X_INTRODUCED_17_,X_INTRODUCED_37_],-5);
constraint int_lin_le(X_INTRODUCED_78_,[X_INTRODUCED_17_,X_INTRODUCED_62_],-5);
constraint int_lin_le(X_INTRODUCED_78_,[X_INTRODUCED_18_,X_INTRODUCED_19_],-10);
constraint int_lin_le(X_INTRODUCED_78_,[X_INTRODUCED_18_,X_INTRODUCED_29_],-10);
constraint int_lin_le(X_INTRODUCED_78_,[X_INTRODUCED_18_,X_INTRODUCED_31_],-10);
constraint int_lin_le(X_INTRODUCED_78_,[X_INTRODUCED_19_,X_INTRODUCED_20_],-5);
constraint int_lin_le(X_INTRODUCED_78_,[X_INTRODUCED_19_,X_INTRODUCED_22_],-5);
constraint int_lin_le(X_INTRODUCED_78_,[X_INTRODUCED_19_,X_INTRODUCED_25_],-5);
constraint int_lin_le(X_INTRODUCED_78_,[X_INTRODUCED_20_,X_INTRODUCED_53_],-7);
constraint int_lin_le(X_INTRODUCED_78_,[X_INTRODUCED_20_,X_INTRODUCED_56_],-7);
constraint int_lin_le(X_INTRODUCED_78_,[X_INTRODUCED_21_,X_INTRODUCED_33_],-3);
constraint int_lin_le(X_INTRODUCED_78_,[X_INTRODUCED_21_,X_INTRODUCED_45_],-3);
constraint int_lin_le(X_INTRODUCED_78_,[X_INTRODUCED_21_,X_INTRODUCED_65_],-3);
constraint int_lin_le(X_INTRODUCED_78_,[X_INTRODUCED_22_,X_INTRODUCED_58_],-6);
constraint int_lin_le(X_INTRODUCED_78_,[X_INTRODUCED_22_,X_INTRODUCED_64_],-6);
constraint int_lin_le(X_INTRODUCED_78_,[X_INTRODUCED_23_,X_INTRODUCED_24_],-9);
constraint int_lin_le(X_INTRODUCED_78_,[X_INTRODUCED_23_,X_INTRODUCED_28_],-9);
constraint int_lin_le(X_INTRODUCED_78_,[X_INTRODUCED_23_,X_INTRODUCED_41_],-9);
constraint int_lin_le(X_INTRODUCED_78_,[X_INTRODUCED_24_,X_INTRODUCED_26_],-5);
constraint int_lin_le(X_INTRODUCED_78_,[X_INTRODUCED_24_,X_INTRODUCED_40_],-5);
constraint int_lin_le(X_INTRODUCED_78_,[X_INTRODUCED_25_,X_INTRODUCED_27_],-10);
constraint int_lin_le(X_INTRODUCED_78_,[X_INTRODUCED_25_,X_INTRODUCED_32_],-10);
constraint int_lin_le(X_INTRODUCED_78_,[X_INTRODUCED_25_,X_INTRODUCED_42_],-10);
constraint int_lin_le(X_INTRODUCED_78_,[X_INTRODUCED_26_,X_INTRODUCED_34_],-1);
constraint int_lin_le(X_INTRODUCED_78_,[X_INTRODUCED_26_,X_INTRODUCED_50_],-1);
constraint int_lin_le(X_INTRODUCED_78_,[X_INTRODUCED_26_,X_INTRODUCED_60_],-1);
constraint int_lin_le(X_INTRODUCED_78_,[X_INTRODUCED_27_,X_INTRODUCED_35_],-10);
constraint int_lin_le(X_INTRODUCED_78_,[X_INTRODUCED_27_,X_INTRODUCED_44_],-10);
constraint int_lin_le(X_INTRODUCED_78_,[X_INTRODUCED_27_,X_INTRODUCED_48_],-10);
constraint int_lin_le(X_INTRODUCED_78_,[X_INTRODUCED_28_,X_INTRODUCED_39_],-5);
constraint int_lin_le(X_INTRODUCED_78_,[X_INTRODUCED_28_,X_INTRODUCED_58_],-5);
constraint int_lin_le(X_INTRODUCED_78_,[X_INTRODUCED_29_,X_INTRODUCED_44_],-6);
constraint int_lin_le(X_INTRODUCED_78_,[X_INTRODUCED_29_,X_INTRODUCED_50_],-6);
constraint int_lin_le(X_INTRODUCED_78_,[X_INTRODUCED_30_,X_INTRODUCED_36_],-9);
constraint int_lin_le(X_INTRODUCED_78_,[X_INTRODUCED_31_,X_INTRODUCED_38_],-5);
constraint int_lin_le(X_INTRODUCED_78_,[X_INTRODUCED_31_,X_INTRODUCED_49_],-5);
constraint int_lin_le(X_INTRODUCED_78_,[X_INTRODUCED_31_,X_INTRODUCED_54_],-5);
constraint int_lin_le(X_INTRODUCED_78_,[X_INTRODUCED_32_,X_INTRODUCED_72_],-8);
constraint int_lin_le(X_INTRODUCED_78_,[X_INTRODUCED_32_,X_INTRODUCED_73_],-8);
constraint int_lin_le(X_INTRODUCED_78_,[X_INTRODUCED_33_,X_INTRODUCED_35_],-6);
constraint int_lin_le(X_INTRODUCED_78_,[X_INTRODUCED_34_,X_INTRODUCED_47_],-3);
constraint int_lin_le(X_INTRODUCED_78_,[X_INTRODUCED_34_,X_INTRODUCED_65_],-3);
constraint int_lin_le(X_INTRODUCED_78_,[X_INTRODUCED_35_,X_INTRODUCED_43_],-1);
constraint int_lin_le(X_INTRODUCED_78_,[X_INTRODUCED_36_,X_INTRODUCED_52_],-3);
constraint int_lin_le(X_INTRODUCED_78_,[X_INTRODUCED_36_,X_INTRODUCED_58_],-3);
constraint int_lin_le(X_INTRODUCED_78_,[X_INTRODUCED_37_,X_INTRODUCED_59_],-3);
constraint int_lin_le(X_INTRODUCED_78_,[X_INTRODUCED_38_,X_INTRODUCED_46_],-7);
constraint int_lin_le(X_INTRODUCED_78_,[X_INTRODUCED_38_,X_INTRODUCED_51_],-7);
constraint int_lin_le(X_INTRODUCED_78_,[X_INTRODUCED_39_,X_INTRODUCED_48_],-8);
constraint int_lin_le(X_INTRODUCED_78_,[X_INTRODUCED_39_,X_INTRODUCED_57_],-8);
constraint int_lin_le(X_INTRODUCED_78_,[X_INTRODUCED_40_,X_INTRODUCED_66_],-9);
constraint int_lin_le(X_INTRODUCED_78_,[X_INTRODUCED_41_,X_INTRODUCED_56_],-5);
constraint int_lin_le(X_INTRODUCED_78_,[X_INTRODUCED_41_,X_INTRODUCED_61_],-5);
constraint int_lin_le(X_INTRODUCED_78_,[X_INTRODUCED_42_,X_INTRODUCED_57_],-2);
constraint int_lin_le(X_INTRODUCED_78_,[X_INTRODUCED_42_,X_INTRODUCED_63_],-2);
constraint int_lin_le(X_INTRODUCED_78_,[X_INTRODUCED_43_,X_INTRODUCED_53_],-10);
constraint int_lin_le(X_INTRODUCED_78_,[X_INTRODUCED_43_,X_INTRODUCED_62_],-10);
constraint int_lin_le(X_INTRODUCED_78_,[X_INTRODUCED_43_,X_INTRODUCED_68_],-10);
constraint int_lin_le(X_INTRODUCED_78_,[X_INTRODUCED_44_,X_INTRODUCED_64_],-4);
constraint int_lin_le(X_INTRODUCED_78_,[X_INTRODUCED_45_,X_INTRODUCED_51_],-9);
constraint int_lin_le(X_INTRODUCED_78_,[X_INTRODUCED_46_,X_INTRODUCED_65_],-7);
constraint int_lin_le(X_INTRODUCED_78_,[X_INTRODUCED_46_,X_INTRODUCED_67_],-7);
constraint int_lin_le(X_INTRODUCED_78_,[X_INTRODUCED_47_,X_INTRODUCED_48_],-5);
constraint int_lin_le(X_INTRODUCED_78_,[X_INTRODUCED_47_,X_INTRODUCED_54_],-5);
constraint int_lin_le(X_INTRODUCED_78_,[X_INTRODUCED_48_,X_INTRODUCED_55_],-6);
constraint int_lin_le(X_INTRODUCED_78_,[X_INTRODUCED_48_,X_INTRODUCED_61_],-6);
constraint int_lin_le(X_INTRODUCED_78_,[X_INTRODUCED_48_,X_INTRODUCED_70_],-6);
constraint int_lin_le(X_INTRODUCED_78_,[X_INTRODUCED_49_,X_INTRODUCED_62_],-1);
constraint int_lin_le(X_INTRODUCED_78_,[X_INTRODUCED_49_,X_INTRODUCED_75_],-1);
constraint int_lin_le(X_INTRODUCED_78_,[X_INTRODUCED_50_,X_INTRODUCED_61_],-3);
constraint int_lin_le(X_INTRODUCED_78_,[X_INTRODUCED_51_,X_INTRODUCED_59_],-7);
constraint int_lin_le(X_INTRODUCED_78_,[X_INTRODUCED_52_,X_INTRODUCED_54_],-4);
constraint int_lin_le(X_INTRODUCED_78_,[X_INTRODUCED_53_,X_INTRODUCED_57_],-1);
constraint int_lin_le(X_INTRODUCED_78_,[X_INTRODUCED_53_,X_INTRODUCED_63_],-1);
constraint int_lin_le(X_INTRODUCED_78_,[X_INTRODUCED_54_,X_INTRODUCED_70_],-7);
constraint int_lin_le(X_INTRODUCED_78_,[X_INTRODUCED_54_,X_INTRODUCED_72_],-7);
constraint int_lin_le(X_INTRODUCED_78_,[X_INTRODUCED_55_,X_INTRODUCED_64_],-1);
constraint int_lin_le(X_INTRODUCED_78_,[X_INTRODUCED_55_,X_INTRODUCED_68_],-1);
constraint int_lin_le(X_INTRODUCED_78_,[X_INTRODUCED_56_,X_INTRODUCED_60_],-9);
constraint int_lin_le(X_INTRODUCED_78_,[X_INTRODUCED_56_,X_INTRODUCED_75_],-9);
constraint int_lin_le(X_INTRODUCED_78_,[X_INTRODUCED_57_,X_INTRODUCED_60_],-9);
constraint int_lin_le(X_INTRODUCED_78_,[X_INTRODUCED_57_,X_INTRODUCED_69_],-9);
constraint int_lin_le(X_INTRODUCED_78_,[X_INTRODUCED_58_,X_INTRODUCED_59_],-6);
constraint int_lin_le(X_INTRODUCED_78_,[X_INTRODUCED_58_,X_INTRODUCED_68_],-6);
constraint int_lin_le(X_INTRODUCED_78_,[X_INTRODUCED_59_,X_INTRODUCED_63_],-6);
constraint int_lin_le(X_INTRODUCED_78_,[X_INTRODUCED_59_,X_INTRODUCED_66_],-6);
constraint int_lin_le(X_INTRODUCED_78_,[X_INTRODUCED_59_,X_INTRODUCED_74_],-6);
constraint int_lin_le(X_INTRODUCED_78_,[X_INTRODUCED_60_,X_INTRODUCED_73_],-6);
constraint int_lin_le(X_INTRODUCED_78_,[X_INTRODUCED_61_,X_INTRODUCED_66_],-7);
constraint int_lin_le(X_INTRODUCED_78_,[X_INTRODUCED_61_,X_INTRODUCED_74_],-7);
constraint int_lin_le(X_INTRODUCED_78_,[X_INTRODUCED_62_,X_INTRODUCED_70_],-9);
constraint int_lin_le(X_INTRODUCED_78_,[X_INTRODUCED_62_,X_INTRODUCED_73_],-9);
constraint int_lin_le(X_INTRODUCED_78_,[X_INTRODUCED_63_,X_INTRODUCED_69_],-8);
constraint int_lin_le(X_INTRODUCED_78_,[X_INTRODUCED_64_,X_INTRODUCED_67_],-9);
constraint int_lin_le(X_INTRODUCED_78_,[X_INTRODUCED_65_,X_INTRODUCED_71_],-5);
constraint int_lin_le(X_INTRODUCED_78_,[X_INTRODUCED_66_,X_INTRODUCED_67_],-3);
constraint int_lin_le(X_INTRODUCED_78_,[X_INTRODUCED_67_,X_INTRODUCED_69_],-10);
constraint int_lin_le(X_INTRODUCED_78_,[X_INTRODUCED_68_,X_INTRODUCED_71_],-5);
constraint int_lin_le(X_INTRODUCED_78_,[X_INTRODUCED_69_,X_INTRODUCED_72_],-5);
constraint int_lin_le(X_INTRODUCED_78_,[X_INTRODUCED_70_,X_INTRODUCED_71_],-9);
constraint int_lin_le(X_INTRODUCED_78_,[X_INTRODUCED_71_,X_INTRODUCED_74_],-1);
constraint int_lin_le(X_INTRODUCED_78_,[X_INTRODUCED_72_,X_INTRODUCED_75_],-7);
constraint bool_clause([X_INTRODUCED_135_,X_INTRODUCED_136_],[]);
constraint bool_clause([X_INTRODUCED_137_,X_INTRODUCED_138_],[]);
constraint bool_clause([X_INTRODUCED_139_,X_INTRODUCED_140_],[]);
constraint bool_clause([X_INTRODUCED_141_,X_INTRODUCED_142_],[]);
constraint bool_clause([X_INTRODUCED_143_,X_INTRODUCED_144_],[]);
constraint bool_clause([X_INTRODUCED_145_,X_INTRODUCED_146_],[]);
constraint bool_clause([X_INTRODUCED_147_,X_INTRODUCED_148_],[]);
constraint bool_clause([X_INTRODUCED_149_,X_INTRODUCED_150_],[]);
constraint bool_clause([X_INTRODUCED_151_,X_INTRODUCED_152_],[]);
constraint minicpp_cumulative(X_INTRODUCED_155_,X_INTRODUCED_154_,X_INTRODUCED_153_,28);
constraint minicpp_cumulative(X_INTRODUCED_158_,X_INTRODUCED_157_,X_INTRODUCED_156_,18);
constraint minicpp_cumulative(X_INTRODUCED_161_,X_INTRODUCED_160_,X_INTRODUCED_159_,32);
constraint minicpp_cumulative(X_INTRODUCED_164_,X_INTRODUCED_163_,X_INTRODUCED_162_,33);
constraint int_lin_le_imp(X_INTRODUCED_78_,[X_INTRODUCED_19_,X_INTRODUCED_27_],-5,X_INTRODUCED_135_):: defines_var(X_INTRODUCED_135_);
constraint int_lin_le_imp(X_INTRODUCED_78_,[X_INTRODUCED_27_,X_INTRODUCED_19_],-10,X_INTRODUCED_136_):: defines_var(X_INTRODUCED_136_);
constraint int_lin_le_imp(X_INTRODUCED_78_,[X_INTRODUCED_19_,X_INTRODUCED_70_],-5,X_INTRODUCED_137_):: defines_var(X_INTRODUCED_137_);
constraint int_lin_le_imp(X_INTRODUCED_78_,[X_INTRODUCED_70_,X_INTRODUCED_19_],-9,X_INTRODUCED_138_):: defines_var(X_INTRODUCED_138_);
constraint int_lin_le_imp(X_INTRODUCED_78_,[X_INTRODUCED_27_,X_INTRODUCED_51_],-10,X_INTRODUCED_139_):: defines_var(X_INTRODUCED_139_);
constraint int_lin_le_imp(X_INTRODUCED_78_,[X_INTRODUCED_51_,X_INTRODUCED_27_],-7,X_INTRODUCED_140_):: defines_var(X_INTRODUCED_140_);
constraint int_lin_le_imp(X_INTRODUCED_78_,[X_INTRODUCED_27_,X_INTRODUCED_53_],-10,X_INTRODUCED_141_):: defines_var(X_INTRODUCED_141_);
constraint int_lin_le_imp(X_INTRODUCED_78_,[X_INTRODUCED_53_,X_INTRODUCED_27_],-1,X_INTRODUCED_142_):: defines_var(X_INTRODUCED_142_);
constraint int_lin_le_imp(X_INTRODUCED_78_,[X_INTRODUCED_27_,X_INTRODUCED_63_],-10,X_INTRODUCED_143_):: defines_var(X_INTRODUCED_143_);
constraint int_lin_le_imp(X_INTRODUCED_78_,[X_INTRODUCED_63_,X_INTRODUCED_27_],-8,X_INTRODUCED_144_):: defines_var(X_INTRODUCED_144_);
constraint int_lin_le_imp(X_INTRODUCED_78_,[X_INTRODUCED_27_,X_INTRODUCED_70_],-10,X_INTRODUCED_145_):: defines_var(X_INTRODUCED_145_);
constraint int_lin_le_imp(X_INTRODUCED_78_,[X_INTRODUCED_70_,X_INTRODUCED_27_],-9,X_INTRODUCED_146_):: defines_var(X_INTRODUCED_146_);
constraint int_lin_le_imp(X_INTRODUCED_78_,[X_INTRODUCED_51_,X_INTRODUCED_70_],-7,X_INTRODUCED_147_):: defines_var(X_INTRODUCED_147_);
constraint int_lin_le_imp(X_INTRODUCED_78_,[X_INTRODUCED_70_,X_INTRODUCED_51_],-9,X_INTRODUCED_148_):: defines_var(X_INTRODUCED_148_);
constraint int_lin_le_imp(X_INTRODUCED_78_,[X_INTRODUCED_53_,X_INTRODUCED_70_],-1,X_INTRODUCED_149_):: defines_var(X_INTRODUCED_149_);
constraint int_lin_le_imp(X_INTRODUCED_78_,[X_INTRODUCED_70_,X_INTRODUCED_53_],-9,X_INTRODUCED_150_):: defines_var(X_INTRODUCED_150_);
constraint int_lin_le_imp(X_INTRODUCED_78_,[X_INTRODUCED_63_,X_INTRODUCED_70_],-8,X_INTRODUCED_151_):: defines_var(X_INTRODUCED_151_);
constraint int_lin_le_imp(X_INTRODUCED_78_,[X_INTRODUCED_70_,X_INTRODUCED_63_],-9,X_INTRODUCED_152_):: defines_var(X_INTRODUCED_152_);
solve :: int_search(s,smallest,indomain_min,complete) satisfy;
